data;


param d:= 100;
param r:=5;
param p:=0.860000;
param M:=1000;
param U:=
         1         1       -1.049058e+00
         2         1        1.015167e+00
         3         1        4.243951e-01
         4         1       -1.045201e+00
         5         1        4.108781e-02
         6         1       -2.675472e-01
         7         1       -4.510908e-01
         8         1       -3.493193e-01
         9         1       -1.532987e+00
        10         1       -1.141855e-01
        11         1        9.829273e-01
        12         1       -6.425317e-01
        13         1       -6.972192e-01
        14         1       -1.374049e-01
        15         1       -1.698421e+00
        16         1        6.933729e-03
        17         1       -1.813136e+00
        18         1       -8.012108e-01
        19         1       -8.920315e-01
        20         1       -4.533085e-01
        21         1       -2.042845e-01
        22         1        1.579421e-01
        23         1        1.035103e+00
        24         1        2.687635e-01
        25         1       -8.612358e-02
        26         1        6.125472e-01
        27         1        1.283918e+00
        28         1       -1.894007e-01
        29         1        1.235306e+00
        30         1       -2.361139e-01
        31         1       -2.113590e-01
        32         1        6.787674e-01
        33         1       -7.976399e-01
        34         1       -1.989945e+00
        35         1        4.971755e-01
        36         1        5.916367e-01
        37         1       -4.575908e-01
        38         1       -9.507238e-01
        39         1        1.038004e+00
        40         1       -7.450231e-01
        41         1       -7.252751e-01
        42         1       -3.348270e-01
        43         1       -1.436803e+00
        44         1        1.255810e+00
        45         1        8.469821e-01
        46         1       -2.901729e-01
        47         1        5.976749e-02
        48         1       -4.115280e-02
        49         1        1.035159e+00
        50         1        1.513315e+00
        51         1        1.976019e+00
        52         1        7.419155e-01
        53         1       -4.196542e-01
        54         1       -7.480926e-01
        55         1       -2.379800e-01
        56         1       -2.216732e-01
        57         1       -8.886323e-01
        58         1        7.553447e-02
        59         1        1.074800e-01
        60         1       -9.257008e-01
        61         1       -1.059175e+00
        62         1        4.516122e-01
        63         1       -2.210239e+00
        64         1       -5.856013e-01
        65         1        4.852390e-01
        66         1       -6.311557e-02
        67         1       -5.876588e-01
        68         1       -3.121648e-01
        69         1        2.204958e+00
        70         1        1.370612e+00
        71         1       -6.350173e-01
        72         1        5.578151e-01
        73         1       -1.729947e+00
        74         1        1.788520e+00
        75         1        1.321371e+00
        76         1       -9.347614e-01
        77         1       -1.304455e+00
        78         1       -1.895065e+00
        79         1       -8.396477e-01
        80         1       -1.039551e+00
        81         1        1.446270e+00
        82         1        1.950521e+00
        83         1       -7.663049e-01
        84         1       -1.077335e+00
        85         1        2.784586e-01
        86         1        2.132380e-01
        87         1       -1.893685e-02
        88         1        1.389151e+00
        89         1        4.511188e-01
        90         1       -1.682755e-01
        91         1       -9.069869e-01
        92         1       -6.045952e-02
        93         1       -1.389855e+00
        94         1        3.442118e-02
        95         1       -1.610159e+00
        96         1        1.018212e+00
        97         1        5.014511e-01
        98         1        9.384979e-01
        99         1       -4.062497e-01
       100         1        1.058432e+00
         1         2        2.016763e-02
         2         2        1.134427e+00
         3         2       -2.324707e+00
         4         2       -2.922776e-01
         5         2        1.124288e+00
         6         2        4.162383e-01
         7         2       -7.666947e-01
         8         2        1.770838e+00
         9         2        2.681462e+00
        10         2        1.630977e+00
        11         2        5.235505e-01
        12         2        1.125553e+00
        13         2        7.989545e-01
        14         2        1.322625e+00
        15         2       -7.839204e-02
        16         2       -2.392998e-01
        17         2       -8.856729e-01
        18         2       -9.389062e-01
        19         2        1.148848e-02
        20         2       -1.659769e-01
        21         2       -1.049070e+00
        22         2        8.467346e-01
        23         2       -4.893771e-01
        24         2        8.895126e-01
        25         2        6.954431e-01
        26         2        1.469798e+00
        27         2       -6.025868e-01
        28         2        4.252989e-01
        29         2        1.061280e+00
        30         2        1.004686e+00
        31         2       -2.984154e-02
        32         2       -6.938271e-01
        33         2        6.612484e-01
        34         2        2.544425e+00
        35         2        9.449299e-01
        36         2        3.003102e-01
        37         2        1.146319e+00
        38         2        6.194931e-01
        39         2        7.863765e-01
        40         2       -4.572423e-01
        41         2        3.160114e-01
        42         2        1.498445e+00
        43         2        3.061746e-02
        44         2        4.881774e-01
        45         2       -1.010000e+00
        46         2        1.718732e+00
        47         2        1.138832e-01
        48         2       -1.744764e-01
        49         2        3.649377e-01
        50         2       -1.085655e-02
        51         2       -2.571985e-02
        52         2        1.633647e-01
        53         2       -4.415550e-01
        54         2        1.047411e+00
        55         2        2.484635e-01
        56         2       -1.045537e+00
        57         2       -1.563242e+00
        58         2       -5.623320e-01
        59         2       -1.034454e+00
        60         2       -9.661349e-02
        61         2       -1.069382e-01
        62         2        9.321538e-01
        63         2       -7.930444e-01
        64         2        1.036411e+00
        65         2       -1.246269e-01
        66         2       -8.056704e-01
        67         2        6.643999e-01
        68         2        3.148186e-01
        69         2       -3.881405e-01
        70         2        1.150641e+00
        71         2        1.311555e+00
        72         2       -1.915816e+00
        73         2        5.433423e-02
        74         2       -2.010606e+00
        75         2       -9.121834e-01
        76         2        3.307673e-01
        77         2       -4.408382e-01
        78         2        7.438963e-01
        79         2       -1.059310e+00
        80         2        6.796468e-01
        81         2       -3.559950e-01
        82         2        4.134956e-01
        83         2       -1.607825e-01
        84         2       -1.500787e+00
        85         2       -3.370479e-01
        86         2        1.397544e+00
        87         2        1.215707e+00
        88         2       -2.320292e-02
        89         2        3.928566e-02
        90         2       -3.984777e-01
        91         2       -5.102401e-01
        92         2       -1.925168e-01
        93         2        6.434262e-01
        94         2        5.578555e-01
        95         2        1.830719e+00
        96         2       -9.269940e-03
        97         2       -2.259312e+00
        98         2        2.329417e+00
        99         2        1.016702e+00
       100         2       -8.682082e-01
         1         3       -1.852109e+00
         2         3        2.647775e-01
         3         3        1.018812e+00
         4         3       -2.381115e-01
         5         3       -2.240582e+00
         6         3        1.018525e+00
         7         3        5.104523e-01
         8         3       -1.198808e+00
         9         3        3.044651e-01
        10         3       -1.183141e-01
        11         3       -2.344610e-01
        12         3       -2.405306e-01
        13         3       -8.795666e-01
        14         3        1.496865e+00
        15         3        1.402106e-01
        16         3       -7.619931e-02
        17         3       -2.249218e-01
        18         3        1.244439e+00
        19         3       -2.077085e+00
        20         3       -1.796092e-01
        21         3        2.749038e-01
        22         3        2.364433e-01
        23         3        7.717345e-01
        24         3        1.748007e-01
        25         3        1.388389e+00
        26         3        8.560593e-01
        27         3        6.960827e-02
        28         3       -1.058470e-01
        29         3        2.509709e-01
        30         3        2.954461e-01
        31         3        1.476914e-01
        32         3       -3.116523e-01
        33         3       -2.259692e+00
        34         3        1.986177e+00
        35         3       -4.031683e-01
        36         3        1.090442e-01
        37         3       -8.003851e-01
        38         3       -1.093696e+00
        39         3       -7.437275e-01
        40         3       -1.895542e-01
        41         3       -2.352343e-01
        42         3       -1.828399e-01
        43         3       -6.247649e-02
        44         3        7.029137e-01
        45         3       -8.812032e-01
        46         3        1.182241e-01
        47         3        6.949337e-02
        48         3       -9.192471e-01
        49         3       -3.932276e-01
        50         3        2.355560e-01
        51         3       -1.261270e+00
        52         3        2.846081e-01
        53         3       -1.119548e+00
        54         3       -6.350659e-01
        55         3       -1.562183e+00
        56         3        1.954622e+00
        57         3        3.546040e-01
        58         3       -4.275573e-02
        59         3       -1.050982e+00
        60         3       -1.088316e+00
        61         3       -9.411255e-01
        62         3       -1.312527e+00
        63         3       -5.704662e-01
        64         3       -6.601965e-01
        65         3        2.134696e+00
        66         3        9.988724e-01
        67         3       -9.286172e-01
        68         3       -1.556637e+00
        69         3        8.611553e-01
        70         3        1.188927e+00
        71         3        1.190369e+00
        72         3        1.800985e-01
        73         3        1.456940e+00
        74         3        3.411566e-01
        75         3        1.277319e+00
        76         3       -1.255921e+00
        77         3       -2.917106e+00
        78         3        1.616811e+00
        79         3        1.332635e+00
        80         3       -6.776861e-01
        81         3        2.122080e+00
        82         3       -5.339673e-01
        83         3       -1.075714e-01
        84         3        7.892453e-01
        85         3        7.210680e-01
        86         3       -7.555322e-01
        87         3       -6.607792e-03
        88         3       -1.759477e+00
        89         3        1.002835e+00
        90         3       -1.395236e+00
        91         3        5.009718e-01
        92         3       -7.171789e-01
        93         3       -2.372143e+00
        94         3       -2.190830e+00
        95         3       -1.469775e-01
        96         3        1.048242e+00
        97         3       -4.812193e-01
        98         3       -1.199246e+00
        99         3       -1.363974e+00
       100         3        2.495704e+00
         1         4        4.312111e-01
         2         4       -2.643539e+00
         3         4       -4.240838e-01
         4         4       -1.290621e+00
         5         4       -8.919352e-01
         6         4       -2.051900e-02
         7         4       -1.061677e-01
         8         4       -4.787121e-01
         9         4       -7.079418e-01
        10         4       -5.696145e-01
        11         4        1.366787e+00
        12         4        8.019337e-01
        13         4       -5.058913e-01
        14         4       -1.291288e+00
        15         4       -9.160546e-02
        16         4        2.377260e+00
        17         4        2.161958e-01
        18         4        7.938568e-02
        19         4       -5.705116e-02
        20         4       -6.100802e-01
        21         4       -1.860817e+00
        22         4       -1.334189e+00
        23         4       -8.476074e-01
        24         4       -1.284042e+00
        25         4        1.049558e-01
        26         4        2.809008e-01
        27         4       -3.384431e-01
        28         4       -5.051690e-01
        29         4       -9.919035e-01
        30         4       -5.565662e-01
        31         4       -3.675927e-01
        32         4        1.090390e+00
        33         4        9.304685e-01
        34         4       -1.353443e+00
        35         4        8.440249e-01
        36         4        2.876095e-01
        37         4       -4.974093e-01
        38         4        2.482888e-01
        39         4        2.365380e-01
        40         4        4.311593e-01
        41         4       -6.408291e-01
        42         4        1.023927e+00
        43         4       -5.450796e-01
        44         4       -9.289728e-02
        45         4        4.093900e-01
        46         4       -8.520678e-01
        47         4       -4.592071e-02
        48         4        6.740591e-02
        49         4        2.242531e-01
        50         4        7.955256e-01
        51         4        9.970464e-01
        52         4        1.232774e+00
        53         4        7.646891e-01
        54         4       -4.270270e-01
        55         4        1.224456e+00
        56         4        3.213859e-01
        57         4        9.747427e-01
        58         4       -3.788410e-01
        59         4        9.124067e-01
        60         4       -1.436343e-02
        61         4        5.135589e-01
        62         4       -1.283760e+00
        63         4       -4.473165e-01
        64         4       -1.579410e+00
        65         4        1.103391e+00
        66         4        3.748549e-01
        67         4        8.255740e-01
        68         4        1.414474e+00
        69         4        1.173698e-01
        70         4        8.648983e-01
        71         4        7.288858e-01
        72         4       -1.723741e-01
        73         4       -1.815873e+00
        74         4       -5.931713e-01
        75         4       -1.150725e+00
        76         4       -1.819873e+00
        77         4       -5.633937e-01
        78         4        1.107007e+00
        79         4        1.775763e+00
        80         4        1.597895e+00
        81         4        9.348425e-01
        82         4        2.278337e+00
        83         4       -2.291654e+00
        84         4        7.473142e-01
        85         4       -3.517257e+00
        86         4        8.807575e-02
        87         4       -1.554409e+00
        88         4        4.446634e-01
        89         4       -7.139453e-02
        90         4       -1.346353e+00
        91         4       -4.463385e-01
        92         4        2.016305e+00
        93         4       -4.270331e-01
        94         4        7.950125e-01
        95         4       -5.455290e-01
        96         4        2.309544e+00
        97         4       -1.297755e+00
        98         4       -9.410227e-01
        99         4       -2.887080e-01
       100         4        1.521590e+00
         1         5        8.759700e-01
         2         5        2.999574e-01
         3         5       -3.042145e-01
         4         5        5.482293e-01
         5         5       -4.681668e-02
         6         5        5.741478e-01
         7         5       -8.026164e-01
         8         5       -1.566822e+00
         9         5       -5.431926e-01
        10         5       -5.574240e-02
        11         5       -3.088943e-01
        12         5       -5.748427e-02
        13         5       -3.147206e-01
        14         5        7.583810e-01
        15         5        2.144300e+00
        16         5        1.220258e-01
        17         5       -7.338992e-01
        18         5        3.472468e-01
        19         5       -8.538135e-01
        20         5       -9.401182e-01
        21         5        1.689503e-01
        22         5        1.234015e+00
        23         5       -8.765673e-02
        24         5       -1.035013e+00
        25         5       -1.384596e+00
        26         5        2.775970e-01
        27         5       -5.436717e-01
        28         5       -4.784603e-01
        29         5       -3.621189e-01
        30         5        4.867272e-01
        31         5        2.709657e-01
        32         5        9.885107e-01
        33         5       -5.037528e-01
        34         5       -3.209784e+00
        35         5        1.258744e+00
        36         5        8.041574e-01
        37         5        2.065505e+00
        38         5        1.023815e-01
        39         5        1.332625e+00
        40         5       -9.631888e-01
        41         5       -6.121151e-01
        42         5        1.160586e+00
        43         5        8.961326e-01
        44         5       -1.384121e+00
        45         5        1.269782e+00
        46         5       -8.435058e-02
        47         5       -4.268778e-01
        48         5        1.025480e-01
        49         5       -1.273379e+00
        50         5        1.243085e-01
        51         5        9.690512e-01
        52         5       -1.722530e+00
        53         5        4.594998e-01
        54         5       -1.093569e+00
        55         5        2.184252e-01
        56         5       -1.853651e+00
        57         5        6.312851e-01
        58         5       -1.069371e+00
        59         5       -1.683760e+00
        60         5        1.426592e+00
        61         5       -5.825264e-01
        62         5        9.183546e-02
        63         5        4.175573e-01
        64         5        1.990189e+00
        65         5        6.829860e-01
        66         5        6.988410e-01
        67         5       -7.634195e-01
        68         5        5.509601e-01
        69         5        8.185675e-01
        70         5       -2.568700e+00
        71         5        5.455714e-01
        72         5       -8.264506e-01
        73         5       -7.180607e-01
        74         5       -2.236393e+00
        75         5       -8.924904e-01
        76         5       -1.579223e-01
        77         5        1.147107e+00
        78         5       -1.493684e+00
        79         5       -2.203154e-01
        80         5        7.415476e-01
        81         5       -1.285947e+00
        82         5       -1.786560e-01
        83         5       -1.060196e+00
        84         5       -2.697182e-02
        85         5       -7.704533e-02
        86         5        1.782961e+00
        87         5        9.953598e-01
        88         5       -3.096162e-01
        89         5        9.046598e-01
        90         5       -1.376124e-01
        91         5       -2.191142e+00
        92         5        7.640963e-01
        93         5        5.117122e-01
        94         5       -1.384172e-01
        95         5       -2.239084e-01
        96         5       -2.392554e+00
        97         5        1.618892e-01
        98         5        1.260183e-01
        99         5       -9.941446e-03
       100         5       -7.371545e-01
;

param theta:=
    1        2.501496e-01
    2       -9.678737e-01
    3        5.383871e-01
    4        2.670039e-03
    5       -3.088362e-01
;
param X_true:=
    1       -1.513801e+00
    2       -8.172276e-01
    3        3.034110e+00
    4       -3.355648e-01
    5       -2.272414e+00
    6       -7.156444e-02
    7        1.203654e+00
    8       -2.052721e+00
    9       -2.676739e+00
   10       -1.630719e+00
   11       -3.660899e-01
   12       -1.377614e+00
   13       -1.283377e+00
   14       -8.426452e-01
   15       -8.873975e-01
   16        1.695802e-01
   17        5.990638e-01
   18        1.202197e+00
   19       -1.004696e+00
   20        2.295554e-01
   21        1.119158e+00
   22       -1.254483e+00
   23        1.153669e+00
   24       -5.184927e-01
   25        2.982188e-01
   26       -8.651751e-01
   27        1.077535e+00
   28       -3.248148e-01
   29       -5.675569e-01
   30       -1.062285e+00
   31       -2.756818e-02
   32        3.057552e-01
   33       -1.789015e+00
   34       -8.763625e-01
   35       -1.390985e+00
   36       -4.102975e-01
   37       -2.141933e+00
   38       -1.489265e+00
   39       -1.353209e+00
   40        2.091154e-01
   41       -4.839949e-01
   42       -1.968042e+00
   43       -6.757290e-01
   44        4.899975e-01
   45        2.064534e-01
   46       -1.539753e+00
   47        4.100074e-02
   48       -4.269918e-01
   49        3.501093e-01
   50        4.962095e-01
   51       -3.883092e-01
   52        9.376840e-01
   53       -4.958189e-01
   54       -1.030656e+00
   55       -1.371821e+00
   56        2.597531e+00
   57        1.373505e+00
   58        7.689683e-01
   59        1.280770e+00
   60       -1.288040e+00
   61       -2.850817e-01
   62       -1.510574e+00
   63       -2.751091e-01
   64       -2.110537e+00
   65        1.272270e+00
   66        1.224981e+00
   67       -1.080502e+00
   68       -1.435244e+00
   69        1.067448e+00
   70        4.863650e-01
   71       -9.753458e-01
   72        2.323200e+00
   73        6.081065e-01
   74        3.276721e+00
   75        2.158517e+00
   76       -1.078911e+00
   77       -1.951655e+00
   78        1.003689e-01
   79        1.619995e+00
   80       -1.507868e+00
   81        2.225949e+00
   82       -1.495241e-02
   83        2.648924e-01
   84        1.791608e+00
   85        9.093243e-01
   86       -2.175843e+00
   87       -1.582740e+00
   88       -5.911119e-01
   89        1.902886e-01
   90       -2.283066e-01
   91        1.359963e+00
   92       -4.119696e-01
   93       -2.417404e+00
   94       -1.805806e+00
   95       -2.357670e+00
   96        1.583413e+00
   97        1.958743e+00
   98       -2.665974e+00
   99       -1.804172e+00
  100        2.700047e+00
;
param X:=
    1       -4.858370e-01
    2        1.061434e-01
    3        3.034110e+00
    4        6.275870e-01
    5        1.015960e+00
    6       -1.651536e+00
    7        3.517786e-01
    8       -1.677196e+00
    9        4.371051e-01
   10       -1.630719e+00
   11       -7.219175e-01
   12        5.864421e-02
   13        9.841354e-01
   14       -6.069672e-01
   15        9.471011e-01
   16        2.552475e-01
   17        1.360433e+00
   18       -7.478108e-01
   19        1.545837e+00
   20        1.318156e+00
   21        6.176004e-01
   22        4.671185e-01
   23       -5.673062e-01
   24       -5.184927e-01
   25        7.608299e-01
   26       -8.319530e-01
   27        1.064175e+00
   28       -3.248148e-01
   29       -1.245807e+00
   30       -1.062285e+00
   31       -2.756818e-02
   32        1.503772e-01
   33        3.540559e-01
   34        2.146830e+00
   35       -1.817828e-01
   36        1.001052e+00
   37        1.306264e+00
   38        4.743522e-01
   39        2.884922e-01
   40        1.561856e+00
   41       -4.839949e-01
   42       -1.568674e+00
   43        1.299039e+00
   44        1.026737e+00
   45        2.064534e-01
   46       -1.836323e-01
   47        2.010732e-01
   48       -4.165872e-01
   49        9.427329e-02
   50        3.862860e-01
   51        1.718311e-01
   52        1.040039e+00
   53        4.734722e-01
   54       -1.081957e-01
   55       -1.371821e+00
   56        8.656952e-01
   57       -8.447871e-01
   58        3.567393e-02
   59        1.280770e+00
   60        5.221901e-01
   61       -2.558050e-01
   62       -6.849391e-01
   63        2.218145e-01
   64        1.344066e-01
   65       -3.719248e-01
   66        6.737611e-01
   67       -1.080502e+00
   68       -9.120363e-01
   69       -2.546337e-01
   70       -2.275350e-01
   71        6.060879e-01
   72       -1.135202e+00
   73       -1.043166e+00
   74       -7.206606e-01
   75       -3.910514e-02
   76       -1.210207e+00
   77       -1.301551e+00
   78        1.882987e-01
   79       -1.654853e+00
   80       -9.637745e-01
   81        6.956332e-01
   82       -5.136768e-02
   83       -6.324249e-01
   84       -2.170599e-01
   85        9.093243e-01
   86        1.244356e+00
   87        1.770840e+00
   88        1.292103e+00
   89        1.290303e+00
   90        1.497288e+00
   91        1.208454e+00
   92       -4.119696e-01
   93       -2.117338e-01
   94       -1.449499e+00
   95       -2.357670e+00
   96       -8.205968e-01
   97        6.994979e-01
   98       -7.924141e-01
   99        1.073630e+00
  100        4.593554e-01
;
param outliervec:=
    1    1
    2    1
    3    0
    4    1
    5    1
    6    1
    7    1
    8    1
    9    1
   10    0
   11    1
   12    1
   13    1
   14    1
   15    1
   16    1
   17    1
   18    1
   19    1
   20    1
   21    1
   22    1
   23    1
   24    0
   25    1
   26    1
   27    1
   28    0
   29    1
   30    0
   31    0
   32    1
   33    1
   34    1
   35    1
   36    1
   37    1
   38    1
   39    1
   40    1
   41    0
   42    1
   43    1
   44    1
   45    0
   46    1
   47    1
   48    1
   49    1
   50    1
   51    1
   52    1
   53    1
   54    1
   55    0
   56    1
   57    1
   58    1
   59    0
   60    1
   61    1
   62    1
   63    1
   64    1
   65    1
   66    1
   67    0
   68    1
   69    1
   70    1
   71    1
   72    1
   73    1
   74    1
   75    1
   76    1
   77    1
   78    1
   79    1
   80    1
   81    1
   82    1
   83    1
   84    1
   85    0
   86    1
   87    1
   88    1
   89    1
   90    1
   91    1
   92    0
   93    1
   94    1
   95    0
   96    1
   97    1
   98    1
   99    1
  100    1
;